
Starting CP-SAT solver v9.15.6755
Parameters: random_seed: 2026073692 max_time_in_seconds: 6939.0477695715 log_search_progress: true cp_model_presolve: true linearization_level: 2 num_search_workers: 4 cp_model_probing_level: 2 symmetry_level: 2

Initial satisfaction model '': (model_fingerprint: 0x4a10da2a7ef1a476)
#Variables: 724 (608 primary variables)
  - 724 Booleans in [0,1]
#kBoolAnd: 110 (#enforced: 110) (#literals: 330)
#kBoolOr: 110 (#enforced: 110) (#literals: 220)
#kExactlyOne: 87 (#literals: 261)
#kLinear1: 32 (#enforced: 6)
#kLinear2: 336 (#enforced: 336) (#complex_domain: 110)
#kLinear3: 1'600 (#enforced: 6)
#kLinearN: 1'132 (#enforced: 243) (#terms: 9'111)

Starting presolve at 0.00s
  6.01e-04s  0.00e+00d  [DetectDominanceRelations] 
  8.00e-03s  0.00e+00d  [PresolveToFixPoint] #num_loops=3 #num_dual_strengthening=1 
  3.25e-05s  0.00e+00d  [ExtractEncodingFromLinear] #potential_supersets=91 
  2.59e-04s  0.00e+00d  [DetectDuplicateColumns] 
  9.26e-05s  0.00e+00d  [DetectDuplicateConstraints] #duplicates=5 
[Symmetry] Graph for symmetry has 4'871 nodes and 15'724 arcs.
[Symmetry] Symmetry computation done. time: 0.00112985 dtime: 0.00180569
[SAT presolve] num removable Booleans: 220 / 628
[SAT presolve] num trivial clauses: 0
[SAT presolve] [0s] clauses:2'736 literals:7'436 vars:507 one_side_vars:67 simple_definition:1 singleton_clauses:0
[SAT presolve] [0.000219901s] clauses:2'735 literals:7'429 vars:507 one_side_vars:67 simple_definition:1 singleton_clauses:0
[SAT presolve] [0.000690735s] clauses:2'250 literals:6'634 vars:379 one_side_vars:73 simple_definition:69 singleton_clauses:0
  1.16e-04s  0.00e+00d  [DetectDuplicateConstraintsWithDifferentEnforcements] #without_enforcements=4 
  5.38e-03s  2.39e-03d  [Probe] #probed=1'306 #fixed_bools=12 #equiv=8 #new_binary_clauses=1'249 
  4.54e-04s  3.18e-04d  [MaxClique] Merged 597 constraints with 1'344 literals into 513 constraints with 1'206 literals
  7.91e-04s  0.00e+00d  [DetectDominanceRelations] 
  3.13e-03s  0.00e+00d  [PresolveToFixPoint] #num_loops=1 #num_dual_strengthening=1 
  1.30e-03s  0.00e+00d  [ProcessAtMostOneAndLinear] #num_changes=2 
  9.08e-05s  0.00e+00d  [DetectDuplicateConstraints] #duplicates=6 
  7.06e-05s  0.00e+00d  [DetectDuplicateConstraintsWithDifferentEnforcements] 
  2.29e-03s  8.61e-05d  [DetectDominatedLinearConstraints] #relevant_constraints=826 #num_inclusions=440 #num_redundant=7 
  1.15e-04s  0.00e+00d  [DetectDifferentVariables] 
  7.29e-04s  8.36e-05d  [ProcessSetPPC] #relevant_constraints=2'992 #num_inclusions=82 
  2.62e-04s  3.39e-05d  [TransformClausesToExactlyOne] #num_amos=508 #num_clauses=1'668 #num_checked=1'668 
  3.09e-05s  0.00e+00d  [DetectEncodedComplexDomains] 
  2.62e-05s  0.00e+00d  [FindAlmostIdenticalLinearConstraints] 
  9.17e-04s  1.38e-03d  [FindBigAtMostOneAndLinearOverlap] 
  1.25e-03s  1.00e-03d  [FindBigVerticalLinearOverlap] #blocks=4 #saved_nz=154 
  3.19e-04s  6.04e-04d  [FindBigHorizontalLinearOverlap] #linears=460 
  3.23e-04s  2.71e-05d  [MergeClauses] #num_collisions=24 #num_merges=24 #num_saved_literals=119 
  7.99e-04s  0.00e+00d  [DetectDominanceRelations] 
  3.16e-03s  0.00e+00d  [PresolveToFixPoint] #num_loops=2 #num_dual_strengthening=1 
  8.01e-04s  0.00e+00d  [DetectDominanceRelations] 
  2.93e-03s  0.00e+00d  [PresolveToFixPoint] #num_loops=1 #num_dual_strengthening=1 
  1.86e-04s  0.00e+00d  [DetectDuplicateColumns] 
  8.01e-05s  0.00e+00d  [DetectDuplicateConstraints] 
[Symmetry] Graph for symmetry has 4'388 nodes and 13'699 arcs.
[Symmetry] Symmetry computation done. time: 0.000956597 dtime: 0.00133369
[SAT presolve] num removable Booleans: 91 / 491
[SAT presolve] num trivial clauses: 0
[SAT presolve] [0s] clauses:2'166 literals:6'448 vars:466 one_side_vars:151 simple_definition:86 singleton_clauses:0
[SAT presolve] [0.000228832s] clauses:2'162 literals:6'256 vars:466 one_side_vars:194 simple_definition:73 singleton_clauses:0
[SAT presolve] [0.000325002s] clauses:2'154 literals:6'250 vars:461 one_side_vars:195 simple_definition:59 singleton_clauses:0
  1.47e-04s  0.00e+00d  [DetectDuplicateConstraintsWithDifferentEnforcements] 
  5.87e-03s  2.18e-03d  [Probe] #probed=1'318 #new_binary_clauses=835 
  4.47e-04s  3.92e-04d  [MaxClique] Merged 522 constraints with 1'159 literals into 514 constraints with 1'156 literals
  7.73e-04s  0.00e+00d  [DetectDominanceRelations] 
  2.99e-03s  0.00e+00d  [PresolveToFixPoint] #num_loops=1 #num_dual_strengthening=1 
  1.15e-03s  0.00e+00d  [ProcessAtMostOneAndLinear] 
  1.01e-04s  0.00e+00d  [DetectDuplicateConstraints] 
  7.84e-05s  0.00e+00d  [DetectDuplicateConstraintsWithDifferentEnforcements] 
  1.08e-03s  6.04e-05d  [DetectDominatedLinearConstraints] #relevant_constraints=812 #num_inclusions=316 
  1.30e-04s  0.00e+00d  [DetectDifferentVariables] 
  7.65e-04s  7.39e-05d  [ProcessSetPPC] #relevant_constraints=3'064 #num_inclusions=100 
  2.72e-04s  3.37e-05d  [TransformClausesToExactlyOne] #num_amos=513 #num_clauses=1'686 #num_checked=1'686 
  1.30e-04s  0.00e+00d  [DetectEncodedComplexDomains] 
  3.61e-05s  1.90e-07d  [FindAlmostIdenticalLinearConstraints] #num_tested_pairs=2 
  8.56e-04s  1.16e-03d  [FindBigAtMostOneAndLinearOverlap] 
  1.09e-03s  9.16e-04d  [FindBigVerticalLinearOverlap] 
  3.25e-04s  6.04e-04d  [FindBigHorizontalLinearOverlap] #linears=460 
  3.16e-04s  2.65e-05d  [MergeClauses] #num_collisions=75 #num_merges=75 #num_saved_literals=228 
  7.87e-04s  0.00e+00d  [DetectDominanceRelations] 
  2.94e-03s  0.00e+00d  [PresolveToFixPoint] #num_loops=1 #num_dual_strengthening=1 
  7.84e-04s  0.00e+00d  [DetectDominanceRelations] 
  2.92e-03s  0.00e+00d  [PresolveToFixPoint] #num_loops=1 #num_dual_strengthening=1 
  1.38e-04s  0.00e+00d  [DetectDuplicateColumns] 
  8.73e-05s  0.00e+00d  [DetectDuplicateConstraints] 
[Symmetry] Graph for symmetry has 4'317 nodes and 13'353 arcs.
[Symmetry] Symmetry computation done. time: 0.000937231 dtime: 0.00132184
[SAT presolve] num removable Booleans: 85 / 486
[SAT presolve] num trivial clauses: 0
[SAT presolve] [0s] clauses:2'143 literals:6'218 vars:461 one_side_vars:198 simple_definition:59 singleton_clauses:0
[SAT presolve] [0.000202655s] clauses:2'143 literals:6'218 vars:461 one_side_vars:198 simple_definition:59 singleton_clauses:0
[SAT presolve] [0.000264451s] clauses:2'143 literals:6'218 vars:461 one_side_vars:198 simple_definition:59 singleton_clauses:0
  1.56e-04s  0.00e+00d  [DetectDuplicateConstraintsWithDifferentEnforcements] 
  5.15e-03s  2.17e-03d  [Probe] #probed=1'318 #new_binary_clauses=835 
  4.03e-04s  3.86e-04d  [MaxClique] 
  7.47e-04s  0.00e+00d  [DetectDominanceRelations] 
  2.80e-03s  0.00e+00d  [PresolveToFixPoint] #num_loops=1 #num_dual_strengthening=1 
  1.10e-03s  0.00e+00d  [ProcessAtMostOneAndLinear] 
  9.92e-05s  0.00e+00d  [DetectDuplicateConstraints] 
  7.61e-05s  0.00e+00d  [DetectDuplicateConstraintsWithDifferentEnforcements] 
  9.75e-04s  6.04e-05d  [DetectDominatedLinearConstraints] #relevant_constraints=812 #num_inclusions=316 
  1.18e-04s  0.00e+00d  [DetectDifferentVariables] 
  6.58e-04s  7.38e-05d  [ProcessSetPPC] #relevant_constraints=3'062 #num_inclusions=98 
  2.50e-04s  3.37e-05d  [TransformClausesToExactlyOne] #num_amos=512 #num_clauses=1'686 #num_checked=1'686 
  1.34e-04s  0.00e+00d  [DetectEncodedComplexDomains] 
  3.96e-05s  0.00e+00d  [FindAlmostIdenticalLinearConstraints] 
  7.66e-04s  1.16e-03d  [FindBigAtMostOneAndLinearOverlap] 
  9.85e-04s  8.82e-04d  [FindBigVerticalLinearOverlap] #blocks=1 #saved_nz=40 
  2.95e-04s  5.70e-04d  [FindBigHorizontalLinearOverlap] #linears=458 
  3.00e-04s  2.65e-05d  [MergeClauses] #num_collisions=75 #num_merges=75 #num_saved_literals=228 
  8.34e-04s  0.00e+00d  [DetectDominanceRelations] 
  3.04e-03s  0.00e+00d  [PresolveToFixPoint] #num_loops=2 #num_dual_strengthening=1 
  1.62e-05s  0.00e+00d  [MergeNoOverlap] 
  1.51e-05s  0.00e+00d  [MergeNoOverlap2D] 

Presolve summary:
  - 37 affine relations were detected.
  - rule 'TODO dual: only one blocking constraint?' was applied 875 times.
  - rule 'TODO dual: tighten at most one' was applied 8 times.
  - rule 'TODO linear inclusion: superset is equality' was applied 175 times.
  - rule 'affine: new relation' was applied 37 times.
  - rule 'at_most_one: removed literals' was applied 61 times.
  - rule 'at_most_one: size one' was applied 60 times.
  - rule 'at_most_one: transformed into max clique' was applied 2 times.
  - rule 'bool_or: implications' was applied 61 times.
  - rule 'bool_or: only one literal' was applied 12 times.
  - rule 'bool_or: removed enforcement literal' was applied 597 times.
  - rule 'deductions: 888 stored' was applied 1 time.
  - rule 'duplicate: merged rhs of linear constraint' was applied 10 times.
  - rule 'duplicate: removed constraint' was applied 11 times.
  - rule 'duplicate: removed enforced constraint' was applied 4 times.
  - rule 'enforcement: false literal' was applied 33 times.
  - rule 'enforcement: true literal' was applied 8 times.
  - rule 'exactly_one: removed literals' was applied 32 times.
  - rule 'exactly_one: satisfied' was applied 3 times.
  - rule 'exactly_one: singleton' was applied 3 times.
  - rule 'exactly_one: size two' was applied 29 times.
  - rule 'exactly_one: x and not(x)' was applied 6 times.
  - rule 'incompatible linear: add implication' was applied 129 times.
  - rule 'linear + amo: empty after processing' was applied 6 times.
  - rule 'linear + amo: extracted enforcement literal' was applied 102 times.
  - rule 'linear + amo: fixed literal implied by enforcement' was applied 1 time.
  - rule 'linear inclusion: redundant containing constraint' was applied 3 times.
  - rule 'linear inclusion: redundant included constraint' was applied 3 times.
  - rule 'linear inclusion: sparsify superset' was applied 1 time.
  - rule 'linear matrix: common vertical rectangle' was applied 5 times.
  - rule 'linear1: x in domain' was applied 26 times.
  - rule 'linear2: convert ax + by != cte to clauses' was applied 257 times.
  - rule 'linear2: convert implied ax + by == cte to clauses' was applied 124 times.
  - rule 'linear2: implied ax + by = cte has only one solution' was applied 8 times.
  - rule 'linear: always true' was applied 422 times.
  - rule 'linear: coefficient strengthening by increasing it' was applied 2 times.
  - rule 'linear: empty' was applied 1 time.
  - rule 'linear: extracted at most one (max)' was applied 1 time.
  - rule 'linear: fixed or dup variables' was applied 879 times.
  - rule 'linear: negative clause' was applied 1'297 times.
  - rule 'linear: negative reified and' was applied 78 times.
  - rule 'linear: never in domain' was applied 6 times.
  - rule 'linear: positive at most one' was applied 38 times.
  - rule 'linear: reduced variable domains' was applied 6 times.
  - rule 'linear: remapped using affine relations' was applied 22 times.
  - rule 'new_bool: integer encoding' was applied 15 times.
  - rule 'presolve: 77 unused variables removed.' was applied 1 time.
  - rule 'presolve: iteration' was applied 3 times.
  - rule 'probing: bool_or reduced to implication' was applied 24 times.
  - rule 'probing: simplified clauses' was applied 18 times.
  - rule 'probing: simplified enforcement list' was applied 1 time.
  - rule 'setppc: bool_or in at_most_one' was applied 7 times.
  - rule 'setppc: removed dominated constraints' was applied 88 times.
  - rule 'variables: add encoding constraint' was applied 15 times.

Presolved satisfaction model '': (model_fingerprint: 0x7344dd54df188a6a)
#Variables: 494 (428 primary variables)
  - 489 Booleans in [0,1]
  - 5 in [0,2]
#kAtMostOne: 55 (#literals: 226)
#kBoolAnd: 276 (#enforced: 276) (#literals: 736)
#kBoolAndClauses: 75 (#enforced: 75 #multi: 75) (#literals: 378)
#kBoolOr: 1'544 (#literals: 4'722)
#kExactlyOne: 52 (#literals: 202)
#kLinear1: 30 (#enforced: 30)
#kLinearN: 810 (#enforced: 123 #multi: 1) (#terms: 5'651)
[Symmetry] Graph for symmetry has 4'090 nodes and 13'354 arcs.
[Symmetry] Symmetry computation done. time: 0.000780534 dtime: 0.00133087

Preloading model.
#Model   0.09s var:494/494 constraints:2842/2842

Starting search at 0.09s with 4 workers.
3 full problem subsolvers: [default_lp, max_lp, no_lp]
1 first solution subsolver: [fj]
2 interleaved subsolvers: [feasibility_pump, rins/rens]
2 helper subsolvers: [neighborhood_helper, synchronization_agent]

#Model  33.32s var:493/494 constraints:2823/2842
#Model 859.86s var:492/494 constraints:2821/2842
#Model 1884.79s var:491/494 constraints:2819/2842
#Model 6297.23s var:490/494 constraints:2802/2842
#Model 6297.60s var:489/494 constraints:2782/2842
#Model 6304.13s var:488/494 constraints:2780/2842
#Model 6370.65s var:487/494 constraints:2759/2842
#Model 6394.99s var:486/494 constraints:2738/2842
#Model 6407.09s var:485/494 constraints:2721/2842
#Model 6478.40s var:484/494 constraints:2700/2842
#Model 6485.65s var:483/494 constraints:2682/2842
#Model 6489.52s var:481/494 constraints:2646/2842
#Model 6489.86s var:480/494 constraints:2629/2842
#Model 6490.76s var:467/494 constraints:2512/2842
#Model 6490.80s var:464/494 constraints:2508/2842
#Done  6491.18s no_lp

Task timing                   n [     min,      max]      avg      dev     time         n [     min,      max]      avg      dev    dtime
        'default_lp':         1 [   1.80h,    1.80h]    1.80h   0.00ns    1.80h         2 [  2.27ms,    2.26h]    1.13h    1.13h    2.26h
  'feasibility_pump':     32799 [767.56us, 155.43ms]   1.55ms 896.11us   50.68s     32798 [284.21us, 138.63ms] 290.69us 763.91us    9.53s
                'fj':     27235 [ 73.70ms, 231.06ms] 120.43ms   9.15ms   54.67m     27235 [ 48.58ms, 100.15ms] 100.02ms 311.97us   45.40m
            'max_lp':         1 [   1.80h,    1.80h]    1.80h   0.00ns    1.80h         2 [ 81.32ms,    2.85h]    1.43h    1.43h    2.85h
             'no_lp':         1 [   1.80h,    1.80h]    1.80h   0.00ns    1.80h         2 [  2.05ms,    4.52h]    2.26h    2.26h    4.52h
         'rins/rens':     32799 [732.19us, 177.49ms]  96.27ms  36.44ms   52.63m     32795 [150.61us, 100.33ms]  68.26ms  37.11ms   37.31m

Search stats     Bools   Conflicts    Branches  Restarts  BacktrackToRoot   Backtrack     BoolPropag  IntegerPropag
  'default_lp':    489     775'768  13'195'011     3'728        1'909'469   3'211'859    150'010'132    170'806'962
      'max_lp':    489     204'610  16'545'709     1'196        2'452'913   3'295'378    170'863'310    218'986'552
       'no_lp':    489  51'657'076  64'881'153   159'755          891'981  52'050'541  4'396'619'065  1'126'191'306

SAT formula      Fixed  Equiv  Total  VarLeft  BinaryClauses  PermanentClauses  TemporaryClauses
  'default_lp':      9      3    489      477          2'946            51'263             3'212
      'max_lp':      9      3    489      477          2'964            50'055             3'883
       'no_lp':     77      3    489      409          2'892            75'620             3'385

SAT stats        ClassicMinim   LitRemoved  LitRemovedBinary     LitLearned  LitForgotten    Subsumed
  'default_lp':       683'977    9'337'295         4'557'375     25'029'958    17'353'852     278'557
      'max_lp':       179'173    2'451'263         1'248'874      5'242'712     3'165'777      78'227
       'no_lp':    46'998'630  850'368'685       238'173'344  1'216'858'783   939'064'414  15'630'687

Vivification       Clauses   Decisions  LitTrue  Subsumed  LitRemoved  DecisionReused  Conflicts
  'default_lp':  1'861'595  11'650'090        2    34'951     381'793         559'339      3'289
      'max_lp':  2'336'386  15'536'305        0    37'517     419'887         651'221      3'685
       'no_lp':    557'716   4'879'921        0    42'196     568'543         128'306      2'174

Clause deletion    at_true  l_and_not(l)  to_binary  sub_conflict  sub_extra  sub_decisions  sub_eager  sub_vivify  sub_probing  sub_inpro  blocked  eliminated   forgotten     promoted   conflicts
    'default_lp':   18'287             0         13       274'238      1'874         10'308      4'319      34'951       18'319     52'310        0           0     441'192    1'547'473     775'768
        'max_lp':   14'833             0         19        77'332        429          1'973        895      37'517       17'263     36'294        0           0      99'288      381'750     204'610
         'no_lp':  130'063             0        146    15'351'882     80'066        706'848    278'805      42'196       43'977    226'108        0           0  34'730'244  114'551'423  51'657'076

Lp stats         Component   Iterations  AddedCuts    OPTIMAL  DUAL_F.  DUAL_U.
  'default_lp':          1  103'233'056    240'449  1'108'098        2  653'562
      'max_lp':          1   43'666'738    158'755     73'712  147'925   80'435

Lp dimension        Final dimension of first component
  'default_lp':    297 rows, 346 columns, 2803 entries
      'max_lp':  1585 rows, 494 columns, 34869 entries

Lp debug         CutPropag  CutEqPropag   Adjust  Overflow        Bad  BadScaling
  'default_lp':          0          198  653'555         0  7'017'237           0
      'max_lp':          0        2'530   80'425         0  4'873'354           0

Lp pool          Constraints  Updates  Simplif  Merged  Shortened  Split  Strengthened        Cuts/Call
  'default_lp':       10'220   46'181   12'698       0     14'019    552             0  240'449/327'665
      'max_lp':       12'924   47'244    5'879       6      6'022    502         4'229  158'755/225'169

Lp Cut            default_lp   max_lp
          CG_FF:       2'815      219
           CG_K:       1'513       44
          CG_KL:       1'294       12
           CG_R:       2'960      204
          CG_RB:         121       10
         CG_RBP:          51        2
         Clique:           -      532
             IB:         293       23
       MIR_1_FF:       1'237    1'356
        MIR_1_K:         255       30
       MIR_1_KL:         851       46
        MIR_1_R:       1'189      567
       MIR_1_RB:           6       10
      MIR_1_RBP:          13        8
      MIR_1_RLT:           -   20'518
       MIR_2_FF:       2'050    1'204
        MIR_2_K:         538      232
       MIR_2_KL:         859      140
        MIR_2_R:       3'711    1'238
       MIR_2_RB:          93       66
      MIR_2_RBP:         123       26
       MIR_3_FF:         830      322
        MIR_3_K:         153       42
       MIR_3_KL:         226       22
        MIR_3_R:       1'780      517
       MIR_3_RB:          46       49
      MIR_3_RBP:          45       23
       MIR_4_FF:         237      100
        MIR_4_K:          58       17
       MIR_4_KL:          51        6
        MIR_4_R:       1'340      333
       MIR_4_RB:          50       27
      MIR_4_RBP:          29       18
       MIR_5_FF:         101       28
        MIR_5_K:          36        6
       MIR_5_KL:          10        1
        MIR_5_R:       1'039      302
       MIR_5_RB:          58       29
      MIR_5_RBP:          39       10
       MIR_6_FF:          62       15
        MIR_6_K:          19        3
       MIR_6_KL:           4        -
        MIR_6_R:         748      253
       MIR_6_RB:          24       17
      MIR_6_RBP:          16        9
   ZERO_HALF_FF:         817    1'322
    ZERO_HALF_K:         199       97
   ZERO_HALF_KL:         204       11
    ZERO_HALF_R:     212'205  128'619
   ZERO_HALF_RB:          23        1
  ZERO_HALF_RBP:          28       69

LNS stats       Improv/Calls  Closed  Difficulty  TimeLimit
  'rins/rens':   32795/32795     50%    7.85e-01       0.10

LS stats                                    Batches  Restarts/Perturbs    LinMoves    GenMoves  CompoundMoves   Bactracks  WeightUpdates  ScoreComputed
                             'fj_restart':    1'208                330  40'699'785           0              0           0     29'959'069     57'407'094
                    'fj_restart_compound':    2'178                309           0  24'365'448        848'042  11'758'072         80'933    399'244'061
                'fj_restart_compound_obj':    1'646                299           0  18'800'665        834'348   8'982'575         52'608    300'613'156
            'fj_restart_compound_perturb':    2'213                321           0  24'702'947        858'020  11'921'828         83'262    406'103'421
        'fj_restart_compound_perturb_obj':    1'147                318           0  12'848'244        777'074   6'034'982         30'963    209'051'576
                       'fj_restart_decay':    1'070                287  35'940'995           0              0           0      1'476'642     19'480'392
              'fj_restart_decay_compound':    1'199                295           0  14'765'041      2'446'835   6'158'415         16'017    221'415'082
          'fj_restart_decay_compound_obj':    2'089                306           0  26'776'385      4'423'399  11'175'785         27'559    387'770'381
      'fj_restart_decay_compound_perturb':    1'241                318           0  15'160'747      2'511'373   6'323'825         16'475    229'257'097
  'fj_restart_decay_compound_perturb_obj':    1'699                347           0  21'255'371      3'503'472   8'875'122         22'388    314'698'338
                   'fj_restart_decay_obj':    1'828                327  61'485'342           0              0           0      2'521'858     33'287'966
               'fj_restart_decay_perturb':    1'971                323  66'265'397           0              0           0      2'719'540     35'875'311
           'fj_restart_decay_perturb_obj':    1'226                312  41'215'777           0              0           0      1'690'823     22'316'957
                         'fj_restart_obj':    2'126                355  69'911'387           0              0           0     53'521'354    109'232'938
                     'fj_restart_perturb':    1'718                325  57'734'583           0              0           0     43'224'947     83'549'184
                 'fj_restart_perturb_obj':    2'676                321  90'562'316           0              0           0     68'099'210    135'882'492

Solution repositories    Added  Queried  Synchro
    'alternative_path':      0        0        0
      'best_solutions':      0        0        0
   'fj solution hints':  5'085        0    5'085
        'lp solutions':  2'126   32'799    2'117
                'pump':      0        0

Improving bounds shared    Num  Sym
            'default_lp':    4    0
                 'no_lp':   43    0

Clauses shared    #Exported  #Imported  #BinaryRead  #BinaryTotal
   'default_lp':      6'590    135'522          539           763
       'max_lp':      5'743    136'227          547           763
        'no_lp':    134'667     13'791          763           763

LRAT_status: NA
CpSolverResponse summary:
status: INFEASIBLE
objective: NA
best_bound: NA
integers: 357
booleans: 489
conflicts: 51657076
branches: 64881153
propagations: 4396619065
integer_propagations: 1126191306
restarts: 159755
lp_iterations: 0
walltime: 6491.21
usertime: 6491.21
deterministic_time: 39648.4
gap_integral: 0

{
  "board_size": 22,
  "parity_proved": 0,
  "target": 34,
  "child_id": 1492,
  "child_count": 2640,
  "partition": "unknown_pair_x_diag_plus_twos_x_diag_minus_twos",
  "build_seconds": 0.06786155700683594,
  "workers": 4,
  "requested_seed": 2026073692,
  "effective_seed": 2026073692,
  "main_diagonal_pair": [
    3,
    15
  ],
  "pair_index": 68,
  "diag_plus_twos": 16,
  "diag_minus_twos": 16,
  "pair_excess": 3,
  "residual_certificate_slack": 109,
  "analytic_minimum_line_defect": 24,
  "analytic_defect_details": {
    "row_costs": {
      "12": 6,
      "13": 3,
      "14": 0,
      "15": 0,
      "16": 0,
      "17": 0
    },
    "column_costs": {
      "12": 6,
      "13": 3,
      "14": 0,
      "15": 0,
      "16": 0,
      "17": 0
    },
    "plus_cost": 24,
    "minus_cost": 0,
    "row_column_minimum": 0
  },
  "maximal_line_constraints": 2455,
  "analytic_infeasible": false,
  "allowed_points": 242,
  "status": "INFEASIBLE",
  "proof_method": "cp_sat_all_lines_with_certificate_profile_cuts",
  "elapsed_seconds": 6491.211722612381,
  "branches": 64881153,
  "conflicts": 51657076
}
